NAME: Tnm70
COMMENT: Recalculated optimal tour for Tnm70, using concorde got a tour of length 881036.0
TYPE: TOUR
DIMENSION: 70
TOUR_SECTION
1
53
56
4
7
10
13
16
19
22
25
28
31
34
37
66
63
60
57
40
43
54
46
49
2
5
8
11
14
17
20
23
26
29
32
35
38
41
44
47
50
3
52
55
6
9
12
15
18
21
24
58
61
64
67
70
69
68
65
62
59
27
30
33
36
39
42
45
48
51
-1
EOF
